* ; EXPECT: unsat
* (set-logic QF_UFBVLIA)
* (set-info :status unsat)
* (declare-const a (_ BitVec 32))
* (declare-const b (_ BitVec 32))
* (declare-const c (_ BitVec 32))
* (declare-const d (_ BitVec 32))
* (declare-const e (_ BitVec 32))
* 
* (assert (or (= a #x00000007) (= a #x00000005) (= a #x00000100)))
* 
* (assert (not (= (bv2nat a) 7)))
* (assert (not (= (bv2nat a) 5)))
* (assert (< (bv2nat a) 10))
* 
* (check-sat)
* unsat
* #variable= 224 #constraint= 388
+1 x64 = 0;
+1 x63 = 0;
+1 x62 = 0;
+1 x61 = 0;
+1 x44 = 0;
+1 x42 = 0;
+1 x41 = 0;
+1 x40 = 0;
+1 x38 = 0;
+1 x37 = 0;
+1 x36 = 1;
+1 x35 = 0;
+1 x34 = 1;
+1 x33 = 0;
+1 x43 = 0;
+1 x39 = 0;
+1 x33 +2 x34 +4 x35 +8 x36 +16 x37 +32 x38 +64 x39 +128 x40 +256 x41 +512 x42 +1024 x43 +2048 x44 +4096 x45 +8192 x46 +16384 x47 +32768 x48 +65536 x49 +131072 x50 +262144 x51 +524288 x52 +1048576 x53 +2097152 x54 +4194304 x55 +8388608 x56 +16777216 x57 +33554432 x58 +67108864 x59 +134217728 x60 +268435456 x61 +536870912 x62 +1073741824 x63 +2147483648 x64 -1 x1 -2 x2 -4 x3 -8 x4 -16 x5 -32 x6 -64 x7 -128 x8 -256 x9 -512 x10 -1024 x11 -2048 x12 -4096 x13 -8192 x14 -16384 x15 -32768 x16 -65536 x17 -131072 x18 -262144 x19 -524288 x20 -1048576 x21 -2097152 x22 -4194304 x23 -8388608 x24 -16777216 x25 -33554432 x26 -67108864 x27 -134217728 x28 -268435456 x29 -536870912 x30 -1073741824 x31 -2147483648 x32 >= 1;
+1 x55 = 0;
+1 x45 = 0;
+1 x46 = 0;
+1 x47 = 0;
+1 x48 = 0;
+1 x49 = 0;
+1 x50 = 0;
+1 x51 = 0;
+1 x52 = 0;
+1 x53 = 0;
+1 x54 = 0;
+1 x56 = 0;
+1 x57 = 0;
+1 x58 = 0;
+1 x59 = 0;
+1 x60 = 0;
-1 x31 -1 x127 -1 x95 >= -2;
+1 x30 +1 x126 -1 x94 >= 0;
-1 x29 -1 x125 -1 x93 >= -2;
+1 x29 +1 x125 -1 x93 >= 0;
-1 x28 -1 x124 -1 x92 >= -2;
+1 x28 +1 x124 -1 x92 >= 0;
-1 x27 -1 x123 -1 x91 >= -2;
+1 x27 +1 x123 -1 x91 >= 0;
-1 x26 -1 x122 -1 x90 >= -2;
+1 x26 +1 x122 -1 x90 >= 0;
-1 x25 -1 x121 -1 x89 >= -2;
+1 x25 +1 x121 -1 x89 >= 0;
-1 x24 -1 x120 -1 x88 >= -2;
+1 x24 +1 x120 -1 x88 >= 0;
-1 x23 -1 x119 -1 x87 >= -2;
+1 x23 +1 x119 -1 x87 >= 0;
-1 x22 -1 x118 -1 x86 >= -2;
+1 x22 +1 x118 -1 x86 >= 0;
-1 x21 -1 x117 -1 x85 >= -2;
+1 x21 +1 x117 -1 x85 >= 0;
-1 x20 -1 x116 -1 x84 >= -2;
+1 x30 -1 x126 +1 x94 >= 0;
-1 x10 +1 x106 +1 x74 >= 0;
-1 x20 +1 x116 +1 x84 >= 0;
+1 x20 +1 x116 -1 x84 >= 0;
-1 x19 -1 x115 -1 x83 >= -2;
+1 x29 -1 x125 +1 x93 >= 0;
-1 x9 +1 x105 +1 x73 >= 0;
-1 x19 +1 x115 +1 x83 >= 0;
+1 x19 +1 x115 -1 x83 >= 0;
+1 x119 = 0;
-1 x18 -1 x114 -1 x82 >= -2;
+1 x117 = 0;
-1 x14 -1 x110 -1 x78 >= -2;
+1 x8 -1 x104 +1 x72 >= 0;
-1 x8 -1 x104 -1 x72 >= -2;
-1 x28 +1 x124 +1 x92 >= 0;
+1 x9 +1 x105 -1 x73 >= 0;
+1 x13 -1 x109 +1 x77 >= 0;
-1 x13 +1 x109 +1 x77 >= 0;
-1 x3 +1 x99 +1 x67 >= 0;
+1 x23 -1 x119 +1 x87 >= 0;
+1 x9 -1 x105 +1 x73 >= 0;
-1 x29 +1 x125 +1 x93 >= 0;
+1 x10 +1 x106 -1 x74 >= 0;
+1 x3 -1 x99 +1 x67 >= 0;
-1 x30 +1 x126 +1 x94 >= 0;
+1 x11 +1 x107 -1 x75 >= 0;
-1 x11 -1 x107 -1 x75 >= -2;
-1 x31 +1 x127 +1 x95 >= 0;
+1 x12 +1 x108 -1 x76 >= 0;
+1 x12 -1 x108 +1 x76 >= 0;
-1 x32 +1 x128 +1 x96 >= 0;
+1 x13 +1 x109 -1 x77 >= 0;
-1 x12 -1 x108 -1 x76 >= -2;
+1 x118 = 0;
+1 x120 = 0;
+1 x122 = 0;
+1 x123 = 0;
+1 x125 = 0;
+1 x113 = 0;
+1 x126 = 0;
-1 x13 -1 x109 -1 x77 >= -2;
+1 x114 = 0;
+1 x18 +1 x114 -1 x82 >= 0;
+1 x127 = 0;
+1 x98 = 1;
-1 x15 +1 x111 +1 x79 >= 0;
+1 x115 = 0;
-1 x9 -1 x105 -1 x73 >= -2;
+1 x128 = 0;
+1 x97 = 1;
+1 x14 +1 x110 -1 x78 >= 0;
+1 x14 -1 x110 +1 x78 >= 0;
+1 x124 = 0;
+1 x10 -1 x106 +1 x74 >= 0;
+1 x65 +1 x66 +1 x67 +1 x68 +1 x69 +1 x70 +1 x71 +1 x72 +1 x73 +1 x74 +1 x75 +1 x76 +1 x77 +1 x78 +1 x79 +1 x80 +1 x81 +1 x82 +1 x83 +1 x84 +1 x85 +1 x86 +1 x87 +1 x88 +1 x89 +1 x90 +1 x91 +1 x92 +1 x93 +1 x94 +1 x95 +1 x96 >= 1;
-1 x3 -1 x99 -1 x67 >= -2;
+1 x112 = 0;
-1 x17 -1 x113 -1 x81 >= -2;
+1 x111 = 0;
-1 x17 +1 x113 +1 x81 >= 0;
+1 x110 = 0;
+1 x11 -1 x107 +1 x75 >= 0;
+1 x109 = 0;
+1 x107 = 0;
-1 x4 +1 x100 +1 x68 >= 0;
+1 x24 -1 x120 +1 x88 >= 0;
-1 x14 +1 x110 +1 x78 >= 0;
-1 x10 -1 x106 -1 x74 >= -2;
+1 x105 = 0;
+1 x102 = 0;
+1 x101 = 0;
+1 x16 +1 x112 -1 x80 >= 0;
+1 x99 = 1;
-1 x15 -1 x111 -1 x79 >= -2;
+1 x100 = 0;
-1 x32 -1 x128 -1 x96 >= -2;
+1 x1 +1 x97 -1 x65 >= 0;
+1 x25 -1 x121 +1 x89 >= 0;
-1 x5 +1 x101 +1 x69 >= 0;
+1 x15 -1 x111 +1 x79 >= 0;
+1 x2 -1 x98 +1 x66 >= 0;
+1 x18 -1 x114 +1 x82 >= 0;
+1 x28 -1 x124 +1 x92 >= 0;
-1 x8 +1 x104 +1 x72 >= 0;
+1 x4 +1 x100 -1 x68 >= 0;
-1 x23 +1 x119 +1 x87 >= 0;
-1 x2 -1 x98 -1 x66 >= -2;
+1 x32 +1 x128 -1 x96 >= 0;
-1 x1 -1 x97 -1 x65 >= -2;
+1 x31 +1 x127 -1 x95 >= 0;
-1 x2 +1 x98 +1 x66 >= 0;
+1 x22 -1 x118 +1 x86 >= 0;
+1 x8 +1 x104 -1 x72 >= 0;
-1 x27 +1 x123 +1 x91 >= 0;
-1 x1 +1 x97 +1 x65 >= 0;
+1 x21 -1 x117 +1 x85 >= 0;
+1 x7 +1 x103 -1 x71 >= 0;
-1 x26 +1 x122 +1 x90 >= 0;
+1 x20 -1 x116 +1 x84 >= 0;
+1 x6 +1 x102 -1 x70 >= 0;
-1 x25 +1 x121 +1 x89 >= 0;
+1 x15 +1 x111 -1 x79 >= 0;
+1 x1 -1 x97 +1 x65 >= 0;
-1 x30 -1 x126 -1 x94 >= -2;
+1 x4 -1 x100 +1 x68 >= 0;
+1 x2 +1 x98 -1 x66 >= 0;
-1 x21 +1 x117 +1 x85 >= 0;
-1 x11 +1 x107 +1 x75 >= 0;
+1 x31 -1 x127 +1 x95 >= 0;
+1 x16 -1 x112 +1 x80 >= 0;
-1 x4 -1 x100 -1 x68 >= -2;
+1 x121 = 0;
+1 x19 -1 x115 +1 x83 >= 0;
+1 x5 +1 x101 -1 x69 >= 0;
-1 x24 +1 x120 +1 x88 >= 0;
+1 x5 -1 x101 +1 x69 >= 0;
+1 x3 +1 x99 -1 x67 >= 0;
-1 x22 +1 x118 +1 x86 >= 0;
-1 x12 +1 x108 +1 x76 >= 0;
+1 x32 -1 x128 +1 x96 >= 0;
+1 x7 -1 x103 +1 x71 >= 0;
+1 x108 = 0;
+1 x17 -1 x113 +1 x81 >= 0;
+1 x27 -1 x123 +1 x91 >= 0;
-1 x7 +1 x103 +1 x71 >= 0;
-1 x5 -1 x101 -1 x69 >= -2;
+1 x6 -1 x102 +1 x70 >= 0;
-1 x6 -1 x102 -1 x70 >= -2;
-1 x7 -1 x103 -1 x71 >= -2;
+1 x103 = 0;
-1 x16 +1 x112 +1 x80 >= 0;
-1 x6 +1 x102 +1 x70 >= 0;
+1 x26 -1 x122 +1 x90 >= 0;
+1 x104 = 0;
-1 x16 -1 x112 -1 x80 >= -2;
+1 x106 = 0;
+1 x17 +1 x113 -1 x81 >= 0;
+1 x116 = 0;
-1 x18 +1 x114 +1 x82 >= 0;
+1 x32 -1 x192 +1 x160 >= 0;
+1 x9 +1 x169 -1 x137 >= 0;
+1 x32 +1 x192 -1 x160 >= 0;
-1 x31 -1 x191 -1 x159 >= -2;
+1 x8 -1 x168 +1 x136 >= 0;
+1 x31 -1 x191 +1 x159 >= 0;
+1 x8 +1 x168 -1 x136 >= 0;
+1 x31 +1 x191 -1 x159 >= 0;
-1 x30 -1 x190 -1 x158 >= -2;
+1 x7 -1 x167 +1 x135 >= 0;
+1 x30 -1 x190 +1 x158 >= 0;
+1 x7 +1 x167 -1 x135 >= 0;
+1 x30 +1 x190 -1 x158 >= 0;
-1 x29 -1 x189 -1 x157 >= -2;
+1 x6 -1 x166 +1 x134 >= 0;
+1 x29 -1 x189 +1 x157 >= 0;
+1 x6 +1 x166 -1 x134 >= 0;
+1 x29 +1 x189 -1 x157 >= 0;
-1 x28 -1 x188 -1 x156 >= -2;
+1 x5 -1 x165 +1 x133 >= 0;
+1 x28 -1 x188 +1 x156 >= 0;
+1 x5 +1 x165 -1 x133 >= 0;
+1 x28 +1 x188 -1 x156 >= 0;
-1 x27 -1 x187 -1 x155 >= -2;
+1 x4 -1 x164 +1 x132 >= 0;
+1 x27 -1 x187 +1 x155 >= 0;
+1 x4 +1 x164 -1 x132 >= 0;
+1 x27 +1 x187 -1 x155 >= 0;
-1 x26 -1 x186 -1 x154 >= -2;
+1 x3 -1 x163 +1 x131 >= 0;
+1 x26 -1 x186 +1 x154 >= 0;
+1 x3 +1 x163 -1 x131 >= 0;
+1 x26 +1 x186 -1 x154 >= 0;
-1 x10 -1 x170 -1 x138 >= -2;
-1 x2 -1 x162 -1 x130 >= -2;
+1 x12 -1 x172 +1 x140 >= 0;
-1 x1 -1 x161 -1 x129 >= -2;
+1 x10 -1 x170 +1 x138 >= 0;
-1 x13 -1 x173 -1 x141 >= -2;
+1 x177 = 0;
-1 x14 -1 x174 -1 x142 >= -2;
+1 x14 -1 x174 +1 x142 >= 0;
-1 x9 +1 x169 +1 x137 >= 0;
+1 x179 = 0;
-1 x21 +1 x181 +1 x149 >= 0;
+1 x10 +1 x170 -1 x138 >= 0;
-1 x9 -1 x169 -1 x137 >= -2;
+1 x129 +1 x130 +1 x131 +1 x132 +1 x133 +1 x134 +1 x135 +1 x136 +1 x137 +1 x138 +1 x139 +1 x140 +1 x141 +1 x142 +1 x143 +1 x144 +1 x145 +1 x146 +1 x147 +1 x148 +1 x149 +1 x150 +1 x151 +1 x152 +1 x153 +1 x154 +1 x155 +1 x156 +1 x157 +1 x158 +1 x159 +1 x160 >= 1;
-1 x3 +1 x163 +1 x131 >= 0;
-1 x22 +1 x182 +1 x150 >= 0;
+1 x186 = 0;
+1 x11 +1 x171 -1 x139 >= 0;
-1 x11 -1 x171 -1 x139 >= -2;
+1 x12 +1 x172 -1 x140 >= 0;
+1 x190 = 0;
-1 x23 +1 x183 +1 x151 >= 0;
-1 x12 +1 x172 +1 x140 >= 0;
-1 x24 +1 x184 +1 x152 >= 0;
+1 x13 +1 x173 -1 x141 >= 0;
+1 x174 = 0;
+1 x20 -1 x180 +1 x148 >= 0;
-1 x8 +1 x168 +1 x136 >= 0;
+1 x181 = 0;
-1 x14 +1 x174 +1 x142 >= 0;
-1 x20 +1 x180 +1 x148 >= 0;
+1 x175 = 0;
+1 x184 = 0;
+1 x15 -1 x175 +1 x143 >= 0;
+1 x185 = 0;
+1 x22 -1 x182 +1 x150 >= 0;
-1 x18 +1 x178 +1 x146 >= 0;
+1 x164 = 0;
+1 x173 = 0;
-1 x15 +1 x175 +1 x143 >= 0;
-1 x10 +1 x170 +1 x138 >= 0;
+1 x188 = 0;
+1 x11 -1 x171 +1 x139 >= 0;
+1 x9 -1 x169 +1 x137 >= 0;
-1 x32 -1 x192 -1 x160 >= -2;
+1 x192 = 0;
+1 x163 = 1;
+1 x18 -1 x178 +1 x146 >= 0;
+1 x172 = 0;
+1 x20 +1 x180 -1 x148 >= 0;
-1 x31 +1 x191 +1 x159 >= 0;
+1 x171 = 0;
+1 x170 = 0;
+1 x183 = 0;
+1 x22 +1 x182 -1 x150 >= 0;
+1 x15 +1 x175 -1 x143 >= 0;
-1 x26 +1 x186 +1 x154 >= 0;
+1 x182 = 0;
-1 x25 +1 x185 +1 x153 >= 0;
+1 x14 +1 x174 -1 x142 >= 0;
+1 x166 = 0;
-1 x11 +1 x171 +1 x139 >= 0;
-1 x16 +1 x176 +1 x144 >= 0;
+1 x162 = 0;
-1 x13 +1 x173 +1 x141 >= 0;
+1 x161 = 1;
+1 x18 +1 x178 -1 x146 >= 0;
-1 x29 +1 x189 +1 x157 >= 0;
+1 x13 -1 x173 +1 x141 >= 0;
-1 x7 -1 x167 -1 x135 >= -2;
+1 x168 = 0;
-1 x19 +1 x179 +1 x147 >= 0;
-1 x1 +1 x161 +1 x129 >= 0;
-1 x3 -1 x163 -1 x131 >= -2;
-1 x2 +1 x162 +1 x130 >= 0;
-1 x8 -1 x168 -1 x136 >= -2;
-1 x17 +1 x177 +1 x145 >= 0;
-1 x4 +1 x164 +1 x132 >= 0;
-1 x4 -1 x164 -1 x132 >= -2;
-1 x12 -1 x172 -1 x140 >= -2;
-1 x5 +1 x165 +1 x133 >= 0;
-1 x5 -1 x165 -1 x133 >= -2;
-1 x6 +1 x166 +1 x134 >= 0;
-1 x6 -1 x166 -1 x134 >= -2;
-1 x7 +1 x167 +1 x135 >= 0;
-1 x15 -1 x175 -1 x143 >= -2;
+1 x16 +1 x176 -1 x144 >= 0;
-1 x27 +1 x187 +1 x155 >= 0;
+1 x16 -1 x176 +1 x144 >= 0;
-1 x16 -1 x176 -1 x144 >= -2;
+1 x17 +1 x177 -1 x145 >= 0;
-1 x28 +1 x188 +1 x156 >= 0;
+1 x17 -1 x177 +1 x145 >= 0;
-1 x17 -1 x177 -1 x145 >= -2;
-1 x18 -1 x178 -1 x146 >= -2;
+1 x165 = 0;
+1 x19 +1 x179 -1 x147 >= 0;
-1 x30 +1 x190 +1 x158 >= 0;
+1 x167 = 0;
+1 x19 -1 x179 +1 x147 >= 0;
+1 x169 = 0;
-1 x19 -1 x179 -1 x147 >= -2;
-1 x20 -1 x180 -1 x148 >= -2;
+1 x176 = 0;
+1 x21 +1 x181 -1 x149 >= 0;
-1 x32 +1 x192 +1 x160 >= 0;
+1 x178 = 0;
+1 x21 -1 x181 +1 x149 >= 0;
+1 x180 = 0;
-1 x21 -1 x181 -1 x149 >= -2;
-1 x22 -1 x182 -1 x150 >= -2;
+1 x187 = 0;
+1 x23 +1 x183 -1 x151 >= 0;
+1 x189 = 0;
+1 x23 -1 x183 +1 x151 >= 0;
+1 x191 = 0;
-1 x23 -1 x183 -1 x151 >= -2;
+1 x24 +1 x184 -1 x152 >= 0;
+1 x1 +1 x161 -1 x129 >= 0;
+1 x24 -1 x184 +1 x152 >= 0;
+1 x1 -1 x161 +1 x129 >= 0;
-1 x24 -1 x184 -1 x152 >= -2;
+1 x25 +1 x185 -1 x153 >= 0;
+1 x2 +1 x162 -1 x130 >= 0;
+1 x25 -1 x185 +1 x153 >= 0;
-1 x25 -1 x185 -1 x153 >= -2;
+1 x2 -1 x162 +1 x130 >= 0;
+1 x224 = 0;
+1 x223 = 0;
+1 x222 = 0;
+1 x221 = 0;
+1 x204 = 0;
+1 x203 = 0;
+1 x202 = 0;
+1 x201 = 1;
+1 x200 = 0;
+1 x198 = 0;
+1 x197 = 0;
+1 x196 = 0;
+1 x195 = 0;
+1 x194 = 0;
+1 x193 = 0;
+1 x199 = 0;
+1 x1 +2 x2 +4 x3 +8 x4 +16 x5 +32 x6 +64 x7 +128 x8 +256 x9 +512 x10 +1024 x11 +2048 x12 +4096 x13 +8192 x14 +16384 x15 +32768 x16 +65536 x17 +131072 x18 +262144 x19 +524288 x20 +1048576 x21 +2097152 x22 +4194304 x23 +8388608 x24 +16777216 x25 +33554432 x26 +67108864 x27 +134217728 x28 +268435456 x29 +536870912 x30 +1073741824 x31 +2147483648 x32 -1 x193 -2 x194 -4 x195 -8 x196 -16 x197 -32 x198 -64 x199 -128 x200 -256 x201 -512 x202 -1024 x203 -2048 x204 -4096 x205 -8192 x206 -16384 x207 -32768 x208 -65536 x209 -131072 x210 -262144 x211 -524288 x212 -1048576 x213 -2097152 x214 -4194304 x215 -8388608 x216 -16777216 x217 -33554432 x218 -67108864 x219 -134217728 x220 -268435456 x221 -536870912 x222 -1073741824 x223 -2147483648 x224 = 0;
+1 x214 = 0;
+1 x205 = 0;
+1 x206 = 0;
+1 x207 = 0;
+1 x208 = 0;
+1 x209 = 0;
+1 x210 = 0;
+1 x211 = 0;
+1 x212 = 0;
+1 x213 = 0;
+1 x215 = 0;
+1 x216 = 0;
+1 x217 = 0;
+1 x218 = 0;
+1 x219 = 0;
+1 x220 = 0;
